0 2043
1 1871
2 1750
3 1745
4 1648
5 1631
6 1581
7 1548
8 1521
9 1463
10 1411
11 1393
12 1336
13 1336
14 1307
15 1303
16 1282
17 1282
18 1259
19 1256
20 1217
21 1210
22 1188
23 1136
24 1110
25 1088
26 1088
27 1084
28 1084
29 1069
30 1055
31 1042
32 1042
33 1036
34 1036
35 1036
36 1036
37 1033
38 1033
39 1029
40 1029
41 1026
42 1023
43 1023
44 1003
45 1000
46 994
47 994
48 994
49 994
50 994
51 994
52 989
53 989
54 988
55 988
56 988
57 988
58 988
59 988
60 988
61 988
62 988
63 988
64 988
65 988
66 988
67 988
68 988
69 988
70 988
71 988
72 988
73 988
74 988
75 988
76 988
77 988
78 988
79 988
80 988
81 988
82 988
83 988
84 988
85 988
86 988
87 988
88 988
89 988
90 988
91 988
92 988
93 988
94 988
95 988
96 988
97 988
98 988
99 988
100 988
101 988
102 988
103 988
104 988
105 988
106 988
107 988
108 988
109 988
110 988
111 988
112 988
113 988
114 988
115 988
116 988
117 988
118 988
119 988
120 988
121 988
122 988
123 988
124 988
125 988
126 988
127 988
128 988
129 988
130 988
131 988
132 988
133 988
134 988
135 988
136 988
137 988
138 988
139 988
140 988
141 988
142 988
143 988
144 988
145 988
146 988
147 988
148 988
149 988
150 988
151 988
152 988
153 988
154 988
155 988
156 988
157 988
158 988
159 988
160 988
161 988
162 988
163 988
164 988
165 988
166 988
167 988
168 988
169 988
170 988
171 988
172 988
173 988
174 988
175 988
176 988
177 988
178 988
179 988
180 988
181 988
182 988
183 988
184 988
185 988
186 988
187 988
188 988
189 988
190 988
191 988
192 988
193 988
194 988
195 988
196 988
197 988
198 988
199 988
200 988
201 988
202 988
203 988
204 988
205 988
206 988
207 988
208 988
209 988
210 988
211 988
212 988
213 988
214 988
215 988
216 988
217 988
218 988
219 988
220 988
221 988
222 988
223 988
224 988
225 988
226 988
227 988
228 988
229 988
230 988
231 988
232 988
233 988
234 988
235 988
236 988
237 988
238 988
239 988
240 988
241 988
242 988
243 988
244 988
245 988
246 988
247 988
248 988
249 988
250 988
251 988
252 988
253 988
254 988
255 988
256 988
257 988
258 988
259 988
260 988
261 988
262 988
263 988
264 988
265 988
266 988
267 988
268 988
269 988
270 988
271 988
272 988
273 988
274 988
275 988
276 988
277 988
278 988
279 988
280 988
281 988
282 988
283 988
284 988
285 988
286 988
287 988
288 988
289 988
290 988
291 988
292 988
293 988
294 988
295 988
296 988
297 988
298 988
299 988
300 988
301 988
302 988
303 988
304 988
305 988
306 988
307 988
308 988
309 988
310 988
311 988
312 988
313 988
314 988
315 988
316 988
317 988
318 988
319 988
320 988
321 988
322 988
323 988
324 988
325 988
326 988
327 988
328 988
329 988
330 988
331 988
332 988
333 988
334 988
335 988
336 988
337 988
338 988
339 988
340 988
341 988
342 988
343 988
344 988
345 988
346 988
347 988
348 988
349 988
350 988
351 988
352 988
353 988
354 988
355 988
356 988
357 988
358 988
359 988
360 988
361 988
362 988
363 988
364 988
365 988
366 988
367 988
368 988
369 988
370 988
371 988
372 988
373 988
374 988
375 988
376 988
377 988
378 988
379 988
380 988
381 988
382 988
383 988
384 988
385 988
386 988
387 988
388 988
389 988
390 988
391 988
392 988
393 988
394 988
395 988
396 988
397 988
398 988
399 988
400 988
401 988
402 988
403 988
404 988
405 988
406 988
407 988
408 988
409 988
410 988
411 988
412 988
413 988
414 988
415 988
416 988
417 988
418 988
419 988
420 988
421 988
422 988
423 988
424 988
425 988
426 988
427 988
428 988
429 988
430 988
431 988
432 988
433 988
434 988
435 988
436 988
437 988
438 988
439 988
440 988
441 988
442 988
443 988
444 988
445 988
446 988
447 988
448 988
449 988
450 988
451 988
452 988
453 988
454 988
455 988
456 988
457 988
458 988
459 988
460 988
461 988
462 988
463 988
464 988
465 988
466 988
467 988
468 988
469 988
470 988
471 988
472 988
473 988
474 988
475 988
476 988
477 988
478 988
479 988
480 988
481 988
482 988
483 988
484 988
485 988
486 988
487 988
488 988
489 988
490 988
491 988
492 988
493 988
494 988
495 988
496 988
497 988
498 988
499 988
500 988
501 988
502 988
503 988
504 988
505 988
506 988
507 988
508 988
509 988
510 988
511 988
512 988
513 988
514 988
515 988
516 988
517 988
518 988
519 988
520 988
521 988
522 988
523 988
524 988
525 988
526 988
527 988
528 988
529 988
530 988
531 988
532 988
533 988
534 988
535 988
536 988
537 988
538 988
539 988
540 988
541 988
542 988
543 988
544 988
545 988
546 988
547 988
548 988
549 988
550 988
551 988
552 988
553 988
554 988
555 988
556 988
557 988
558 988
559 988
560 988
561 988
562 988
563 988
564 988
565 988
566 988
567 988
568 988
569 988
570 988
571 988
572 988
573 988
574 988
575 988
576 988
577 988
578 988
579 988
580 988
581 988
582 988
583 988
584 988
585 988
586 988
587 988
588 988
589 988
590 988
591 988
592 988
593 988
594 988
595 988
596 988
597 988
598 988
599 988
600 988
601 988
602 988
603 988
604 988
605 988
606 988
607 988
608 988
609 988
610 988
611 988
612 988
613 988
614 988
615 988
616 988
617 988
618 988
619 988
620 988
621 988
622 988
623 988
624 988
625 988
626 988
627 988
628 988
629 988
630 988
631 988
632 988
633 988
634 988
635 988
636 988
637 988
638 988
639 988
640 988
641 988
642 988
643 988
644 988
645 988
646 988
647 988
648 988
649 988
650 988
651 988
652 988
653 988
654 988
655 988
656 988
657 988
658 988
659 988
660 988
661 988
662 988
663 988
664 988
665 988
666 988
667 988
668 988
669 988
670 988
671 988
672 988
673 988
674 988
675 988
676 988
677 988
678 988
679 988
680 988
681 988
682 988
683 988
684 988
685 988
686 988
687 988
688 988
689 988
690 988
691 988
692 988
693 988
694 988
695 988
696 988
697 988
698 988
699 988
700 988
701 988
702 988
703 988
704 988
705 988
706 988
707 988
708 988
709 988
710 988
711 988
712 988
713 988
714 988
715 988
716 988
717 988
718 988
719 988
720 988
721 988
722 988
723 988
724 988
725 988
726 988
727 988
728 988
729 988
730 988
731 988
732 988
733 988
734 988
735 988
736 988
737 988
738 988
739 988
740 988
741 988
742 988
743 988
744 988
745 988
746 988
747 988
748 988
749 988
750 988
751 988
752 988
753 988
754 988
755 988
756 988
757 988
758 988
759 988
760 988
761 988
762 988
763 988
764 988
765 988
766 988
767 988
768 988
769 988
770 988
771 988
772 988
773 988
774 988
775 988
776 988
777 988
778 988
779 988
780 988
781 988
782 988
783 988
784 988
785 988
786 988
787 988
788 988
789 988
790 988
791 988
792 988
793 988
794 988
795 988
796 988
797 988
798 988
799 988
800 988
801 988
802 988
803 988
804 988
805 988
806 988
807 988
808 988
809 988
810 988
811 988
812 988
813 988
814 988
815 988
816 988
817 988
818 988
819 988
820 988
821 988
822 988
823 988
824 988
825 988
826 988
827 988
828 988
829 988
830 988
831 988
832 988
833 988
834 988
835 988
836 988
837 988
838 988
839 988
840 988
841 988
842 988
843 988
844 988
845 988
846 988
847 988
848 988
849 988
850 988
851 988
852 988
853 988
854 988
855 988
856 988
857 988
858 988
859 988
860 988
861 988
862 988
863 988
864 988
865 988
866 988
867 988
868 988
869 988
870 988
871 988
872 988
873 988
874 988
875 988
876 988
877 988
878 988
879 988
880 988
881 988
882 988
883 988
884 988
885 988
886 988
887 988
888 988
889 988
890 988
891 988
892 988
893 988
894 988
895 988
896 988
897 988
898 988
899 988
900 988
901 988
902 988
903 988
904 988
905 988
906 988
907 988
908 988
909 988
910 988
911 988
912 988
913 988
914 988
915 988
916 988
917 988
918 988
919 988
920 988
921 988
922 988
923 988
924 988
925 988
926 988
927 988
928 988
929 988
930 988
931 988
932 988
933 988
934 988
935 988
936 988
937 988
938 988
939 988
940 988
941 988
942 988
943 988
944 988
945 988
946 988
947 988
948 988
949 988
950 988
951 988
952 988
953 988
954 988
955 988
956 988
957 988
958 988
959 988
960 988
961 988
962 988
963 988
964 988
965 988
966 988
967 988
968 988
969 988
970 988
971 988
972 988
973 988
974 988
975 988
976 988
977 988
978 988
979 988
980 988
981 988
982 988
983 988
984 988
985 988
986 988
987 988
988 988
989 988
990 988
991 988
992 988
993 988
994 988
995 988
996 988
997 988
998 988
999 988
Best: [[21,26,11,28],
       [3,29,5,12,16,30,6],
       [27,14,22,32,20,18,4,24,19,15],
       [17,2,13],
       [25,23,10,9,7,8,31]], fitness: 988
